language ESSENCE' 1.0
$ loaded file: carseqdata/csplib-instance-23
letting numcars=200
letting numclasses=21
letting numoptions=5
letting optMax=[1, 2, 1, 2, 1]
letting windowSize=[2, 3, 3, 5, 5]
letting numberPerClass=[26, 1, 10, 4, 1, 3, 3, 3, 9, 4, 8, 2, 59, 1, 3, 3, 32, 19, 1, 7, 1]
letting optionsRequired=[[0, 0, 0, 0, 1], [0, 1, 1, 0, 1], [0, 1, 0, 1, 0], [1, 0, 1, 0, 0], [0, 0, 0, 1, 1], [0, 1, 1, 0, 0], [0, 0, 1, 0, 1], [1, 1, 1, 0, 0], [1, 1, 0, 0, 0], [0, 1, 1, 1, 0], [0, 0, 1, 1, 0], [1, 1, 0, 0, 1], [0, 1, 0, 0, 0], [1, 0, 0, 0, 1], [1, 0, 0, 1, 0], [0, 1, 0, 0, 1], [1, 0, 0, 0, 0], [0, 0, 0, 1, 0], [1, 0, 1, 1, 0], [0, 0, 1, 0, 0], [1, 1, 0, 1, 0]]
